\ Model pbUFLPnldep_5_5_grb.lp
\ LP format - for model browsing. Use MPS format to capture full model detail.
Minimize
  __pwl(w(1)) + __pwl(w(2)) + __pwl(w(3)) + __pwl(w(4)) + __pwl(w(5))
   + 260 x(1,1) + 239 x(1,2) + 418 x(1,3) + 557 x(1,4) + 346 x(1,5)
   + 161 x(2,1) + 288 x(2,2) + 568 x(2,3) + 379 x(2,4) + 392 x(2,5)
   + 672 x(3,1) + 268 x(3,2) + 122 x(3,3) + 295 x(3,4) + 344 x(3,5)
   + 143 x(4,1) + 393 x(4,2) + 29 x(4,3) + 656 x(4,4) + 654 x(4,5)
   + 235 x(5,1) + 329 x(5,2) + 640 x(5,3) + 517 x(5,4) + 329 x(5,5)
Subject To
 R0: x(1,1) + x(2,1) + x(3,1) + x(4,1) + x(5,1) = 1
 R1: - y(1) + x(1,1) <= 0
 R2: - y(2) + x(2,1) <= 0
 R3: - y(3) + x(3,1) <= 0
 R4: - y(4) + x(4,1) <= 0
 R5: - y(5) + x(5,1) <= 0
 R6: x(1,2) + x(2,2) + x(3,2) + x(4,2) + x(5,2) = 1
 R7: - y(1) + x(1,2) <= 0
 R8: - y(2) + x(2,2) <= 0
 R9: - y(3) + x(3,2) <= 0
 R10: - y(4) + x(4,2) <= 0
 R11: - y(5) + x(5,2) <= 0
 R12: x(1,3) + x(2,3) + x(3,3) + x(4,3) + x(5,3) = 1
 R13: - y(1) + x(1,3) <= 0
 R14: - y(2) + x(2,3) <= 0
 R15: - y(3) + x(3,3) <= 0
 R16: - y(4) + x(4,3) <= 0
 R17: - y(5) + x(5,3) <= 0
 R18: x(1,4) + x(2,4) + x(3,4) + x(4,4) + x(5,4) = 1
 R19: - y(1) + x(1,4) <= 0
 R20: - y(2) + x(2,4) <= 0
 R21: - y(3) + x(3,4) <= 0
 R22: - y(4) + x(4,4) <= 0
 R23: - y(5) + x(5,4) <= 0
 R24: x(1,5) + x(2,5) + x(3,5) + x(4,5) + x(5,5) = 1
 R25: - y(1) + x(1,5) <= 0
 R26: - y(2) + x(2,5) <= 0
 R27: - y(3) + x(3,5) <= 0
 R28: - y(4) + x(4,5) <= 0
 R29: - y(5) + x(5,5) <= 0
 R30: w(1) - 49 x(1,1) - 29 x(1,2) - 23 x(1,3) - 40 x(1,4) - 18 x(1,5) = 0
 R31: w(2) - 49 x(2,1) - 29 x(2,2) - 23 x(2,3) - 40 x(2,4) - 18 x(2,5) = 0
 R32: w(3) - 49 x(3,1) - 29 x(3,2) - 23 x(3,3) - 40 x(3,4) - 18 x(3,5) = 0
 R33: w(4) - 49 x(4,1) - 29 x(4,2) - 23 x(4,3) - 40 x(4,4) - 18 x(4,5) = 0
 R34: w(5) - 49 x(5,1) - 29 x(5,2) - 23 x(5,3) - 40 x(5,4) - 18 x(5,5) = 0
Bounds
 y(1) free
 y(2) free
 y(3) free
 y(4) free
 y(5) free
Binaries
 y(1) y(2) y(3) y(4) y(5)
PWLObj
 w(1): (0, 0) (0, 0) (0, 3.004393876805346) 
  (3.867311666138778, 8.499463043796517) 
  (3.867311666138778, 8.49946304546669) 
  (6.512877260476594, 14.64514836292242) 
  (6.512877260476594, 12.81467756100208) 
  (12.83423338422772, 32.22261633389489) 
  (12.83423338422772, 32.01927223710758) 
  (50.44565712714643, 161.5816349448909) 
  (50.44565712714643, 161.5816349448909) 
  (74.13541454626287, 175.4661588842915) 
  (74.13541454626287, 147.0050523838168) (159, 287.6692482101593)
 w(2): (0, 0) (0, 0) (0, 2.062026095861013) 
  (12.83423338422764, 20.78160820457984) 
  (12.83423338422764, 27.70882057083864) 
  (74.13541454626281, 158.2396903866) 
  (74.13541454626281, 155.7671745857013) 
  (97.79090257894504, 161.1578772411958) 
  (97.79090257894504, 161.15787726186) 
  (111.2591160232969, 181.6873357461048) 
  (111.2591160232969, 177.9837603850146) (159, 308.5977179383465)
 w(3): (0, 0) (0, 0) (0, 4.137198125436871) 
  (3.867311666138722, 11.70417861768686) 
  (3.867311666138722, 11.70417861998678) 
  (6.512877260476576, 20.1670895489423) 
  (6.512877260476576, 17.64644123154381) 
  (12.83423338422773, 44.37212741060936) 
  (12.83423338422773, 44.47530435574133) 
  (74.13541454626287, 253.9898215122496) 
  (74.13541454626287, 238.1154039357412) 
  (111.259116023297, 276.1655852529836) 
  (111.259116023297, 285.6809402358193) (159, 495.3288211494493)
 w(4): (0, 0) (0, 0) (0, 3.309748892719587) 
  (12.83423338422773, 33.35646667231953) 
  (12.83423338422773, 43.78036601398806) 
  (21.43209713071182, 85.51755899878083) 
  (21.43209713071182, 86.87499320933598) 
  (40.35172359277819, 184.658878658828) 
  (40.35172359277819, 184.6588786588281) 
  (50.44565712714643, 220.0860422171791) 
  (50.44565712714643, 222.505857956899) 
  (74.13541454626287, 241.6255302668931) 
  (74.13541454626287, 238.1154039357412) 
  (111.259116023297, 276.1655852529836) 
  (111.259116023297, 285.6809402358193) (159, 495.3288211494493)
 w(5): (0, 0) (0, 0) (0, 4.443654293774485) 
  (6.512877260476645, 20.30741252836393) 
  (6.512877260476645, 20.30741252836409) 
  (12.83423338422779, 51.06316249633649) 
  (12.83423338422779, 51.18189786970277) 
  (74.13541454626289, 292.2898739625094) 
  (74.13541454626289, 232.9588261820054) (159, 455.8693004423297)
End
